(set-info :smt-lib-version 2.6)
(set-logic QF_S)
(set-info :source |
Generated by: Murphy Berzish, Mitja Kulczynski, Federico Mora, Florin Manea, Joel Day, Dirk Nowotka, Vijay Ganesh, Zhengyang Lu
Generated on: 2020-10-01
Description: Translated from a collection of real-world regex queries, AutomataArk, collected by Loris D’Antoni and Fang Wang: https://github.com/lorisdanto/automatark
Application: Evaluate solvers on real-world regex queries
Target solver: Z3str3RE, CVC4, OSTRICH, Z3seq, Z3str3, Z3-Trau
Publications: Berzish, M., Kulczynski, M., Mora, F., Manea, F., Day, J. D., Nowotka, D., & Ganesh, V. (2021, July). An SMT solver for regular expressions and linear arithmetic over string length. In CAV 2021.
|)
(set-info :license "https://creativecommons.org/licenses/by/4.0/")
(set-info :category "industrial")
(set-info :status sat)

(declare-const X String)
(assert (not (str.in_re X (re.union ((_ re.loop 1 1) (re.range "1" "9")) (re.++ ((_ re.loop 1 1) (re.range "0" "9")) ((_ re.loop 1 1) (re.range "0" "9")) ((_ re.loop 1 1) (re.range "0" "9")) ((_ re.loop 1 1) (re.range "0" "9"))) (str.to_re "9999\u{a}")))))
(assert (not (str.in_re X (re.++ (re.opt (re.++ (re.union (str.to_re " ") (str.to_re "\u{9}") (str.to_re "\u{a}") (str.to_re "\u{c}") (str.to_re "\u{d}")) (re.union (re.range "1" "9") (re.++ (str.to_re "1") (re.union (str.to_re "0") (str.to_re "2")))) (str.to_re ":") (re.union (re.++ (str.to_re ":") (re.union (str.to_re " ") (str.to_re "\u{9}") (str.to_re "\u{a}") (str.to_re "\u{c}") (str.to_re "\u{d}")) (re.range "0" "5") (re.range "0" "9")) (str.to_re " ") (str.to_re "\u{9}") (str.to_re "\u{a}") (str.to_re "\u{c}") (str.to_re "\u{d}")) ((_ re.loop 2 2) (re.union (str.to_re "A") (str.to_re "M") (str.to_re "|") (str.to_re "P") (str.to_re "a") (str.to_re "m") (str.to_re "p"))) (re.range "0" "5") (re.range "0" "9"))) (str.to_re "\u{a}") (re.union (re.++ (re.union (re.++ (str.to_re "1") (re.range "0" "2")) (str.to_re "1") (str.to_re "3") (str.to_re "5") (str.to_re "7") (str.to_re "8")) (re.opt (re.union (str.to_re "-") (str.to_re "/") (str.to_re " ") (str.to_re "\u{9}") (str.to_re "\u{a}") (str.to_re "\u{c}") (str.to_re "\u{d}"))) (re.union (re.range "1" "9") (re.++ (re.range "1" "2") (re.range "0" "9")) (re.++ (str.to_re "3") (re.union (str.to_re "0") (str.to_re "1"))))) (re.++ (re.union (str.to_re "11") (str.to_re "4") (str.to_re "6") (str.to_re "9")) (re.opt (re.union (str.to_re "-") (str.to_re "/") (str.to_re " ") (str.to_re "\u{9}") (str.to_re "\u{a}") (str.to_re "\u{c}") (str.to_re "\u{d}"))) (re.union (re.range "1" "9") (re.++ (re.range "1" "2") (re.range "0" "9")) (str.to_re "30"))) (re.++ (str.to_re "2") (re.opt (re.union (str.to_re "-") (str.to_re "/") (str.to_re " ") (str.to_re "\u{9}") (str.to_re "\u{a}") (str.to_re "\u{c}") (str.to_re "\u{d}"))) (re.union (re.range "1" "9") (re.++ (re.range "1" "2") (re.range "0" "9"))))) (re.opt (re.union (str.to_re "-") (str.to_re "/") (str.to_re " ") (str.to_re "\u{9}") (str.to_re "\u{a}") (str.to_re "\u{c}") (str.to_re "\u{d}"))) ((_ re.loop 4 4) (re.range "0" "9"))))))
(assert (not (str.in_re X (re.++ (str.to_re "<") (re.union (str.to_re "i") (str.to_re "I")) (re.union (str.to_re "f") (str.to_re "F")) (re.union (str.to_re "r") (str.to_re "R")) (re.union (str.to_re "a") (str.to_re "A")) (re.union (str.to_re "m") (str.to_re "M")) (re.union (str.to_re "e") (str.to_re "E")) (str.to_re "\u{a}") (re.* (re.comp (str.to_re ">"))) (re.* (re.union (str.to_re "/") (str.to_re ">"))) (re.* (re.union (str.to_re "/") (str.to_re ">"))) (str.to_re ">")))))
(assert (not (str.in_re X (re.++ (re.union (re.++ (str.to_re "J") (re.union (str.to_re "AN") (str.to_re "UN") (str.to_re "UL"))) (str.to_re "FEB") (str.to_re "MAR") (re.++ (str.to_re "A") (re.union (str.to_re "PR") (str.to_re "UG"))) (str.to_re "MAY") (str.to_re "SEP") (str.to_re "NOV") (str.to_re "DEC") (str.to_re "OCT")) (re.* (re.union (str.to_re " ") (str.to_re "\u{9}") (str.to_re "\u{a}") (str.to_re "\u{c}") (str.to_re "\u{d}"))) (re.union (re.++ (re.opt (str.to_re "0")) (re.range "1" "9")) (re.++ (str.to_re "1") (re.range "0" "9")) (re.++ (str.to_re "2") (re.range "0" "9")) (re.++ (str.to_re "3") (re.range "0" "1"))) (re.* (re.union (str.to_re " ") (str.to_re "\u{9}") (str.to_re "\u{a}") (str.to_re "\u{c}") (str.to_re "\u{d}"))) (str.to_re ",") (re.* (re.union (str.to_re " ") (str.to_re "\u{9}") (str.to_re "\u{a}") (str.to_re "\u{c}") (str.to_re "\u{d}"))) (str.to_re "\u{a}200") (re.range "0" "9")))))
(assert (str.in_re X (re.++ (str.to_re "User-Agent:") (re.+ (re.range "0" "9")) (str.to_re "Theef2") (re.union (str.to_re " ") (str.to_re "\u{9}") (str.to_re "\u{a}") (str.to_re "\u{c}") (str.to_re "\u{d}")) (str.to_re "Host:\u{a}"))))
(check-sat)

(exit)
